c Random Network
p max    10      20
n         1  s
n        10  t
a       6       7       2
a       2       7      25
a       1       2       4
a       5       6       2
a       6       5      41
a       2       9      36
a       2       5      46
a       1       6      33
a       6       1      12
a       4       9      10
a       8       9      41
a       7       8      25
a       2       1      43
a       2       4      31
a       4       7      13
a       9       4      41
a       4       5      23
a       4       2      29
a       4       1      32
a      10       5      20
